<<<<<<< Updated upstream
NAME : single.779.tour
COMMENT : Length = 779
COMMENT : Found by LKH [Keld Helsgaun] Sun May  1 01:56:02 2022
TYPE : TOUR
DIMENSION : 6
TOUR_SECTION
1
4
5
3
6
=======
NAME : single.1666.tour
COMMENT : Length = 1666
COMMENT : Found by LKH [Keld Helsgaun] Sun May  1 17:00:00 2022
TYPE : TOUR
DIMENSION : 3
TOUR_SECTION
1
3
>>>>>>> Stashed changes
2
-1
EOF
